c FILE /home/rafael/Documents/HappySet/MIHS/inputs/happygen/output/graph_d_regular_k4_p0.5_v100_20241127_084034.txt
c SOURCE This is a d-regular graph formed for the happy graph colouring problem.
c DESCRIPTION It was generated using the problem generator of Rhyd Lewis
c
c GRAPH STATS
c Seed                             = -412328318
c Number of Nodes                  = 100
c Number of colours k              = 4
c Number of pre-assignments        = 50
c Degree of all vertices           = 6
c Density                          = 0.0606061
c 
c The degrees of nodes 1 to 100, respectively, are as follows 
c [6, 6, 6, 6, 6, 6, 6, 6, 6, 6, 6, 6, 6, 6, 6, 6, 6, 6, 6, 6, 6, 6, 6, 6, 6, 6, 
c  6, 6, 6, 6, 6, 6, 6, 6, 6, 6, 6, 6, 6, 6, 6, 6, 6, 6, 6, 6, 6, 6, 6, 6, 6, 
c  6, 6, 6, 6, 6, 6, 6, 6, 6, 6, 6, 6, 6, 6, 6, 6, 6, 6, 6, 6, 6, 6, 6, 6, 6, 
c  6, 6, 6, 6, 6, 6, 6, 6, 6, 6, 6, 6, 6, 6, 6, 6, 6, 6, 6, 6, 6, 6, 6, 6] 
c  
p edge 100 300 4
e 1 14
e 1 17
e 1 26
e 1 42
e 1 66
e 1 76
e 2 11
e 2 12
e 2 14
e 2 73
e 2 83
e 2 98
e 3 4
e 3 9
e 3 17
e 3 18
e 3 33
e 3 34
e 4 24
e 4 26
e 4 56
e 4 71
e 4 93
e 5 10
e 5 21
e 5 25
e 5 74
e 5 80
e 5 84
e 6 22
e 6 29
e 6 30
e 6 55
e 6 72
e 6 77
e 7 11
e 7 19
e 7 56
e 7 63
e 7 86
e 7 92
e 8 16
e 8 31
e 8 38
e 8 77
e 8 78
e 8 82
e 9 10
e 9 14
e 9 42
e 9 46
e 9 81
e 10 13
e 10 57
e 10 65
e 10 76
e 11 14
e 11 25
e 11 36
e 11 71
e 12 14
e 12 50
e 12 62
e 12 91
e 12 98
e 13 18
e 13 33
e 13 34
e 13 89
e 13 90
e 14 21
e 15 32
e 15 55
e 15 69
e 15 85
e 15 87
e 15 91
e 16 26
e 16 32
e 16 63
e 16 80
e 16 96
e 17 49
e 17 79
e 17 95
e 17 100
e 18 32
e 18 38
e 18 63
e 18 64
e 19 26
e 19 32
e 19 54
e 19 82
e 19 93
e 20 34
e 20 53
e 20 59
e 20 70
e 20 79
e 20 94
e 21 45
e 21 48
e 21 78
e 21 79
e 22 24
e 22 28
e 22 54
e 22 62
e 22 93
e 23 36
e 23 43
e 23 51
e 23 59
e 23 85
e 23 94
e 24 40
e 24 76
e 24 85
e 24 100
e 25 35
e 25 36
e 25 38
e 25 56
e 26 64
e 26 93
e 27 28
e 27 52
e 27 58
e 27 62
e 27 69
e 27 86
e 28 51
e 28 53
e 28 77
e 28 98
e 29 38
e 29 57
e 29 61
e 29 83
e 29 89
e 30 42
e 30 59
e 30 60
e 30 88
e 30 93
e 31 37
e 31 49
e 31 51
e 31 88
e 31 99
e 32 55
e 32 96
e 33 66
e 33 72
e 33 83
e 33 94
e 34 71
e 34 79
e 34 90
e 35 46
e 35 59
e 35 78
e 35 79
e 35 92
e 36 43
e 36 75
e 36 79
e 37 54
e 37 64
e 37 68
e 37 82
e 37 91
e 38 40
e 38 60
e 39 40
e 39 56
e 39 62
e 39 64
e 39 97
e 39 100
e 40 60
e 40 91
e 40 99
e 41 44
e 41 45
e 41 48
e 41 65
e 41 67
e 41 97
e 42 80
e 42 81
e 42 86
e 43 45
e 43 59
e 43 75
e 43 96
e 44 45
e 44 50
e 44 63
e 44 87
e 44 97
e 45 87
e 45 95
e 46 47
e 46 64
e 46 67
e 46 69
e 47 49
e 47 59
e 47 68
e 47 72
e 47 77
e 48 52
e 48 65
e 48 81
e 48 94
e 49 77
e 49 80
e 49 88
e 50 63
e 50 66
e 50 74
e 50 84
e 51 61
e 51 71
e 51 95
e 52 72
e 52 73
e 52 74
e 52 89
e 53 70
e 53 81
e 53 98
e 53 100
e 54 69
e 54 70
e 54 76
e 55 75
e 55 83
e 55 99
e 56 87
e 56 97
e 57 65
e 57 70
e 57 73
e 57 93
e 58 62
e 58 71
e 58 75
e 58 90
e 58 96
e 60 72
e 60 73
e 60 77
e 61 64
e 61 68
e 61 86
e 61 99
e 62 84
e 63 86
e 65 87
e 65 92
e 66 72
e 66 73
e 66 82
e 67 73
e 67 96
e 67 97
e 67 100
e 68 78
e 68 85
e 68 92
e 69 86
e 69 95
e 70 89
e 70 92
e 71 84
e 74 80
e 74 82
e 74 96
e 75 94
e 75 99
e 76 83
e 76 84
e 78 80
e 78 85
e 81 90
e 81 91
e 82 87
e 83 88
e 84 90
e 85 89
e 88 95
e 88 99
e 89 100
e 90 97
e 91 92
e 94 98
e 95 98
n 3 2
n 6 1
n 8 1
n 9 2
n 10 2
n 11 3
n 12 2
n 13 2
n 15 4
n 18 2
n 19 1
n 21 1
n 22 1
n 24 1
n 25 3
n 26 1
n 27 2
n 30 1
n 37 3
n 39 3
n 41 2
n 46 2
n 49 1
n 50 2
n 51 4
n 52 2
n 53 2
n 57 2
n 59 1
n 60 1
n 61 4
n 63 2
n 66 2
n 67 2
n 70 2
n 74 2
n 75 2
n 77 1
n 78 1
n 79 1
n 81 2
n 83 4
n 84 2
n 87 4
n 89 2
n 90 2
n 92 2
n 94 2
n 95 4
n 96 2
